12 16 6 10
6 11 14 17 2 16 12 16 15 15 13 18 10 19 12 20 
0.1 0.81 1.24 5.41 6.42 3.66 7.45 6.35 3.42 2.68 6.28 5.64 6.03 3.83 2.01 7.59 
5.41 3.36 2.5 5.72 6.58 1.17 7.72 5.61 5.93 2.54 7.06 3.78 4.06 6.37 0.96 3.9 
0.29 5.85 0.95 6.38 5.3 0.87 4.74 7.49 4.43 7.26 1.14 2.95 4.11 4.09 6.79 2.42 
3.49 4.73 1.99 7.04 3.86 1.94 1.14 4.68 2.9 3.68 6.25 7.62 0.26 6.22 0.75 0.53 
1.37 5.85 2.84 0.09 4.95 6.11 2.79 3.14 0.96 4.29 7.99 6.78 0.83 2.37 2.09 7.63 
3.76 0.29 2.81 7.07 1.95 1.21 0.49 0.09 4.85 6.86 0.16 3.02 2.1 7.7 1.84 3.61 
4 4 4 4 4 4 4 4 4 4 4 4 4 4 4 4 
2.66 5.93 0.62 2.59 7.82 7.89 7.13 6.71 2.21 5.76 3.7 5.83 1.04 4.5 4.63 1.09 
0.63 2.4 5.85 1.67 6.49 2.03 4.03 3.14 4.73 7.54 2.59 3.33 0 6.73 6.5 6.97 
3.27 2.5 4.27 5.98 0.13 1.64 0.73 2.01 5.84 1.98 4.11 0.99 1.29 7.07 4.63 2.77 
4.46 1.56 1.25 7.1 2.41 1.23 3.2 5.67 5.54 5.58 0.13 1.35 4.61 1.03 5.16 7.82 
6.94 3.27 7.98 6.66 5.42 6.21 5.31 5.18 0.28 7.37 7.01 0.37 3.01 6.38 6.5 5.65 
1 1 1 1 1 1 1 1 1 1 1 1 1 1 1 1 
1 1 1 1 1 1 1 1 1 1 1 1 1 1 1 1 
1 1 1 1 1 1 1 1 1 1 1 1 1 1 1 1 
1 1 1 1 1 1 1 1 1 1 1 1 1 1 1 1 
1 1 1 1 1 1 1 1 1 1 1 1 1 1 1 1 
1 1 1 1 1 1 1 1 1 1 1 1 1 1 1 1 
1 1 1 1 1 1 1 1 1 1 1 1 1 1 1 1 
1 1 1 1 1 1 1 1 1 1 1 1 1 1 1 1 
1 1 1 1 1 1 1 1 1 1 1 1 1 1 1 1 
1 1 1 1 1 1 1 1 1 1 1 1 1 1 1 1 
1 1 1 1 1 1 1 1 1 1 1 1 1 1 1 1 
1 1 1 1 1 1 1 1 1 1 1 1 1 1 1 1 
0.01 0.01 0.01 0.01 0.01 0.01 0.01 0.01 0.01 0.01 0.01 0.01 0.01 0.01 0.01 0.01 
0.02 0.02 0.02 0.02 0.02 0.02 0.02 0.02 0.02 0.02 0.02 0.02 0.02 0.02 0.02 0.02 
0.03 0.03 0.03 0.03 0.03 0.03 0.03 0.03 0.03 0.03 0.03 0.03 0.03 0.03 0.03 0.03 
0.04 0.04 0.04 0.04 0.04 0.04 0.04 0.04 0.04 0.04 0.04 0.04 0.04 0.04 0.04 0.04 
0.05 0.05 0.05 0.05 0.05 0.05 0.05 0.05 0.05 0.05 0.05 0.05 0.05 0.05 0.05 0.05 
0.06 0.06 0.06 0.06 0.06 0.06 0.06 0.06 0.06 0.06 0.06 0.06 0.06 0.06 0.06 0.06 
0.07 0.07 0.07 0.07 0.07 0.07 0.07 0.07 0.07 0.07 0.07 0.07 0.07 0.07 0.07 0.07 
0.2 0.2 0.2 0.2 0.2 0.2 0.2 0.2 0.2 0.2 0.2 0.2 0.2 0.2 0.2 0.2 
0.4 0.4 0.4 0.4 0.4 0.4 0.4 0.4 0.4 0.4 0.4 0.4 0.4 0.4 0.4 0.4 
0.6 0.6 0.6 0.6 0.6 0.6 0.6 0.6 0.6 0.6 0.6 0.6 0.6 0.6 0.6 0.6 
0.8 0.8 0.8 0.8 0.8 0.8 0.8 0.8 0.8 0.8 0.8 0.8 0.8 0.8 0.8 0.8 
1 1 1 1 1 1 1 1 1 1 1 1 1 1 1 1 
